benchmarks_vrp/CMT3/fixed_c_size/CMT3_0.vrp
NAME: CMT3_0
TYPE: CVRP
COMMENT: 826.14 - Cluster Nr.0
DIMENSION: 14
CAPACITY: 200
EDGE_WEIGHT_TYPE: EUC_2D
NODE_COORD_TYPE: TWOD_COORDS
NODE_COORD_SECTION: 
11 31 52
8 24 58
9 31 67
12 37 56
5 40 60
3 35 69
4 26 52
14 35 40
7 37 47
1 27 43
10 35 35
13 41 49
2 30 60
6 27 69
DEPOT_SECTION: 
10
-1
DEMAND_SECTION: 
6 10
4 9
8 19
13 10
5 21
7 6
1 9
11 27
12 5
3 23
14 16
10 0
2 16
9 3
EOF
