benchmarks_vrp/CMT3/fixed_c_size/CMT3_0.tour
NAME: CMT3_0 solution
TYPE: TOUR
TOUR_SECTION:
10 1 11 4 8 2 6 9 3 5 12 13 7 14 -1
-1
EOF